PROBLEM NAME: eil51_n18
KNAPSACK DATA TYPE: uncorrelated
DIMENSION: 18
NUMBER OF ITEMS: 17
CAPACITY OF KNAPSACK: 955
MIN SPEED: 0.1
MAX SPEED: 1
RENTING RATIO: 3.55
EDGE_WEIGHT_TYPE: CEIL_2D
NODE_COORD_SECTION	(INDEX, X, Y):
1	37	52
2	49	49
3	20	26
4	21	47
5	17	63
6	31	62
7	51	21
8	42	41
9	31	32
10	27	23
11	17	33
12	7	38
13	58	27
14	38	46
15	32	22
16	5	6
17	25	55
18	48	28
ITEMS SECTION	(INDEX, PROFIT, WEIGHT, ASSIGNED NODE NUMBER):
1	992	421	14
2	815	845	8
3	791	9	2
4	667	122	13
5	649	322	7
6	598	94	18
7	544	574	9
8	506	326	15
9	457	43	10
10	446	955	16
11	422	252	3
12	416	248	11
13	359	901	12
14	334	715	4
15	237	795	17
16	94	485	5
17	7	738	6
